NAME : portcgen-18-22
COMMENT : portcgen N=18, seed=22
TYPE : TSP
DIMENSION : 18
EDGE_WEIGHT_TYPE : EUC_2D
NODE_COORD_SECTION
1 21317 -181130
2 -172996 -25835
3 80847 411175
4 -51397 -82729
5 12914 379092
6 -164676 53946
7 153194 -190674
8 139990 -121576
9 -125082 486463
10 375806 19071
11 -177658 387807
12 -70900 -254129
13 383512 192637
14 -251918 -126976
15 150484 137016
16 137928 35067
17 229860 120658
18 265435 72031
